&GLOBAL
  PROJECT Li6PS5Cl
  RUN_TYPE ENERGY_FORCE
  PRINT_LEVEL MEDIUM
&END GLOBAL

&FORCE_EVAL
  METHOD Quickstep
  &DFT
    BASIS_SET_FILE_NAME BASIS_MOLOPT
    POTENTIAL_FILE_NAME POTENTIAL
    &MGRID
      CUTOFF 600
      REL_CUTOFF 50
    &END MGRID
    &QS
      METHOD GPW
      EPS_DEFAULT 1.0E-10
    &END QS
    &SCF
      SCF_GUESS ATOMIC
      EPS_SCF 1.0E-6
      MAX_SCF 100
      &OT
        PRECONDITIONER FULL_SINGLE_INVERSE
        MINIMIZER DIIS
      &END OT
    &END SCF
    &XC
      &XC_FUNCTIONAL PBE
      &END XC_FUNCTIONAL
    &END XC
  &END DFT
  &SUBSYS
    &CELL
      ABC 10.0 10.0 10.0
      PERIODIC XYZ
    &END CELL
    &COORD
      Li  0.3148  0.018   0.6852
      Li  0.6852  0.018   0.3148
      Li  0.018   0.3148  0.6852
      Li  0.018   0.6852  0.3148
      Li  0.3148  0.6852  0.018
      Li  0.6852  0.3148  0.018
      P   0.0     0.0     0.5
      S   0.25    0.25    0.75
      S   0.75    0.25    0.25
      S   0.25    0.75    0.25
      S   0.75    0.75    0.75
      Cl  0.0     0.0     1.0
    &END COORD
  &END SUBSYS
&END FORCE_EVAL
